% Auto-generated by scripts/generate_dzn.py
% problem_type   = regex
% instance       = regex_13
% source_json    = instances_json/2_high_blowup/regex_13.json
% blowup         = 59.592592592592595
% representation = NFA

mode = 1;

var_count = 21;
n_constraints = 2;
Q = 16;
S = 3;
q0 = [1, 1];
F = [{16}, {11}];
weights = [6, 1, 5, 6, 9, 7, 10, 7, 6, 5, 8, 1, 1, 6, 3, 3, 4, 5, 10, 1, 7];
d_dfa = array3d(1..2, 1..16, 1..3, [
  % k = 1
    0, 0, 0,
    0, 0, 0,
    0, 0, 0,
    0, 0, 0,
    0, 0, 0,
    0, 0, 0,
    0, 0, 0,
    0, 0, 0,
    0, 0, 0,
    0, 0, 0,
    0, 0, 0,
    0, 0, 0,
    0, 0, 0,
    0, 0, 0,
    0, 0, 0,
    0, 0, 0,

  % k = 2
    0, 0, 0,
    0, 0, 0,
    0, 0, 0,
    0, 0, 0,
    0, 0, 0,
    0, 0, 0,
    0, 0, 0,
    0, 0, 0,
    0, 0, 0,
    0, 0, 0,
    0, 0, 0,
    0, 0, 0,
    0, 0, 0,
    0, 0, 0,
    0, 0, 0,
    0, 0, 0
]);
d_nfa = array3d(1..2, 1..16, 1..3, [
  % k = 1
    {1, 2}, {1}, {1},
    {}, {3}, {},
    {4}, {4}, {4},
    {5}, {5}, {5},
    {6}, {6}, {6},
    {7}, {7}, {7},
    {8}, {8}, {8},
    {9}, {9}, {9},
    {10}, {10}, {10},
    {11}, {11}, {11},
    {12}, {12}, {12},
    {13}, {13}, {13},
    {14}, {14}, {14},
    {15}, {15}, {15},
    {16}, {16}, {16},
    {}, {}, {},

  % k = 2
    {2}, {1}, {1},
    {3}, {2}, {2},
    {4}, {3}, {3},
    {5}, {4}, {4},
    {6}, {5}, {5},
    {7}, {6}, {6},
    {8}, {7}, {7},
    {9}, {8}, {8},
    {10}, {9}, {9},
    {11}, {10}, {10},
    {}, {11}, {11},
    {}, {}, {},
    {}, {}, {},
    {}, {}, {},
    {}, {}, {},
    {}, {}, {}
]);
